CPXPARAM_Read_DataCheck                          1
Found incumbent of value 0.000000 after 0.00 sec. (0.13 ticks)
Tried aggregator 1 time.
MIP Presolve modified 1 coefficients.
Reduced MIP has 1017 rows, 5005 columns, and 25017 nonzeros.
Reduced MIP has 5005 binaries, 0 generals, 0 SOSs, and 0 indicators.
Presolve time = 0.02 sec. (10.50 ticks)
Probing time = 0.02 sec. (5.79 ticks)
Tried aggregator 1 time.
Reduced MIP has 1017 rows, 5005 columns, and 25017 nonzeros.
Reduced MIP has 5005 binaries, 0 generals, 0 SOSs, and 0 indicators.
Presolve time = 0.02 sec. (12.42 ticks)
Probing time = 0.02 sec. (5.51 ticks)
Clique table members: 16064.
MIP emphasis: balance optimality and feasibility.
MIP search method: dynamic search.
Parallel mode: deterministic, using up to 4 threads.
Root relaxation solution time = 0.05 sec. (46.57 ticks)

        Nodes                                         Cuts/
   Node  Left     Objective  IInf  Best Integer    Best Bound    ItCnt     Gap

*     0+    0                            0.0000    30794.0000              --- 
*     0+    0                         4079.0000    30794.0000           654.94%
*     0+    0                         4439.0000    30794.0000           593.71%
      0     0    10669.1520     5     4439.0000    10669.1520     1374  140.35%
*     0+    0                         7286.0000    10669.1520            46.43%
      0     0     9490.7398   180     7286.0000     Cuts: 354     1918   29.50%
      0     0        cutoff           7286.0000     7286.0000     2555    0.00%
Elapsed time = 0.75 sec. (534.93 ticks, tree = 0.01 MB, solutions = 4)

Clique cuts applied:  516
Cover cuts applied:  3
Implied bound cuts applied:  5
Mixed integer rounding cuts applied:  6
Zero-half cuts applied:  3

Root node processing (before b&c):
  Real time             =    0.75 sec. (535.34 ticks)
Parallel b&c, 4 threads:
  Real time             =    0.00 sec. (0.00 ticks)
  Sync time (average)   =    0.00 sec.
  Wait time (average)   =    0.00 sec.
                          ------------
Total (root+branch&cut) =    0.75 sec. (535.34 ticks)
